benchmarks/bfuzz0/6247210511932384191102129064704930204.smt2
(set-logic QF_FP)
(declare-const x0 (_ FloatingPoint 8 24))
(declare-const x1 (_ FloatingPoint 8 24))
(declare-const x2 (_ FloatingPoint 8 24))
(declare-const x3 (_ FloatingPoint 8 24))
(declare-const x4 (_ FloatingPoint 8 24))
(declare-const x5 (_ FloatingPoint 8 24))
(declare-const x6 (_ FloatingPoint 8 24))
(declare-const x7 (_ FloatingPoint 8 24))
(declare-const x8 (_ FloatingPoint 8 24))
(declare-const x9 (_ FloatingPoint 8 24))
(declare-const x10 (_ FloatingPoint 8 24))
(declare-const x11 (_ FloatingPoint 8 24))
(declare-const x12 (_ FloatingPoint 8 24))
(declare-const x13 (_ FloatingPoint 8 24))
(declare-const x14 (_ FloatingPoint 8 24))
(assert (fp.geq (fp.div RNE x2 x14) (fp.sub RNE x14 x4)))
(assert (fp.gt (fp.mul RNE x4 x0) (fp.div RNE x2 x5)))
(assert (fp.eq (fp.add RNE x9 x0) (fp.mul RNE x0 x7)))
(assert (fp.geq (fp.neg x10) (fp.sub RNE x9 x11)))
(assert (fp.gt (fp.neg x10) (fp.add RNE x7 x7)))
(assert (fp.eq (fp.mul RNE x14 x11) (fp.add RNE x2 x4)))
(assert (fp.eq (fp.neg x8) (fp.sub RNE x11 x5)))
(assert (fp.lt (fp.div RNE x12 x9) (fp.add RNE x11 x10)))
(assert (fp.eq (fp.neg x8) (fp.add RNE x5 x5)))
(assert (fp.leq (fp.add RNE x7 x4) (fp.mul RNE x10 x6)))
(assert (fp.lt (fp.mul RNE x7 x9) (fp.add RNE x10 x12)))
(assert (fp.leq (fp.div RNE x8 x9) (fp.sub RNE x5 x7)))
(assert (fp.geq (fp.mul RNE x13 x14) (fp.sub RNE x9 x11)))
(assert (fp.gt (fp.neg x9) (fp.div RNE x5 x12)))
(assert (fp.leq (fp.mul RNE x8 x11) (fp.neg x8)))
(check-sat)
