db/data/6247210511932384191102129064704930204.z3.out
sat
-------------------
73.157649958
